*SENSE:Maximize
NAME          The_Gemstone_Tool_Problem
ROWS
 N  Total_cost
 L  Steel_capacity0
 L  molding_capacity0
 L  assembly_capacity0
 L  capacity_wrenches0
 L  capacity_pliers0
 L  Steel_capacity1
 L  molding_capacity1
 L  assembly_capacity1
 L  capacity_wrenches1
 L  capacity_pliers1
 L  Steel_capacity2
 L  molding_capacity2
 L  assembly_capacity2
 L  capacity_wrenches2
 L  capacity_pliers2
 L  Steel_capacity3
 L  molding_capacity3
 L  assembly_capacity3
 L  capacity_wrenches3
 L  capacity_pliers3
COLUMNS
    production_0_pliers  Steel_capacity0   1.000000000000e+00
    production_0_pliers  molding_capacity0   1.000000000000e+00
    production_0_pliers  assembly_capacity0   5.000000000000e-01
    production_0_pliers  capacity_pliers0   1.000000000000e+00
    production_0_pliers  Total_cost   2.500000000000e+01
    production_0_wrenches  Steel_capacity0   1.500000000000e+00
    production_0_wrenches  molding_capacity0   1.000000000000e+00
    production_0_wrenches  assembly_capacity0   3.000000000000e-01
    production_0_wrenches  capacity_wrenches0   1.000000000000e+00
    production_0_wrenches  Total_cost   4.000000000000e+01
    production_1_pliers  Steel_capacity1   1.000000000000e+00
    production_1_pliers  molding_capacity1   1.000000000000e+00
    production_1_pliers  assembly_capacity1   5.000000000000e-01
    production_1_pliers  capacity_pliers1   1.000000000000e+00
    production_1_pliers  Total_cost   2.500000000000e+01
    production_1_wrenches  Steel_capacity1   1.500000000000e+00
    production_1_wrenches  molding_capacity1   1.000000000000e+00
    production_1_wrenches  assembly_capacity1   3.000000000000e-01
    production_1_wrenches  capacity_wrenches1   1.000000000000e+00
    production_1_wrenches  Total_cost   4.000000000000e+01
    production_2_pliers  Steel_capacity2   1.000000000000e+00
    production_2_pliers  molding_capacity2   1.000000000000e+00
    production_2_pliers  assembly_capacity2   5.000000000000e-01
    production_2_pliers  capacity_pliers2   1.000000000000e+00
    production_2_pliers  Total_cost   2.500000000000e+01
    production_2_wrenches  Steel_capacity2   1.500000000000e+00
    production_2_wrenches  molding_capacity2   1.000000000000e+00
    production_2_wrenches  assembly_capacity2   3.000000000000e-01
    production_2_wrenches  capacity_wrenches2   1.000000000000e+00
    production_2_wrenches  Total_cost   2.250000000000e+01
    production_3_pliers  Steel_capacity3   1.000000000000e+00
    production_3_pliers  molding_capacity3   1.000000000000e+00
    production_3_pliers  assembly_capacity3   5.000000000000e-01
    production_3_pliers  capacity_pliers3   1.000000000000e+00
    production_3_pliers  Total_cost   2.500000000000e+01
    production_3_wrenches  Steel_capacity3   1.500000000000e+00
    production_3_wrenches  molding_capacity3   1.000000000000e+00
    production_3_wrenches  assembly_capacity3   3.000000000000e-01
    production_3_wrenches  capacity_wrenches3   1.000000000000e+00
    production_3_wrenches  Total_cost   2.250000000000e+01
    steelpurchase  Steel_capacity0  -1.000000000000e+00
    steelpurchase  Steel_capacity1  -1.000000000000e+00
    steelpurchase  Steel_capacity2  -1.000000000000e+00
    steelpurchase  Steel_capacity3  -1.000000000000e+00
    steelpurchase  Total_cost  -5.800000000000e+01
RHS
    RHS       Steel_capacity0   0.000000000000e+00
    RHS       molding_capacity0   2.100000000000e+01
    RHS       assembly_capacity0   8.000000000000e+00
    RHS       capacity_wrenches0   1.500000000000e+01
    RHS       capacity_pliers0   1.600000000000e+01
    RHS       Steel_capacity1   0.000000000000e+00
    RHS       molding_capacity1   2.100000000000e+01
    RHS       assembly_capacity1   1.000000000000e+01
    RHS       capacity_wrenches1   1.500000000000e+01
    RHS       capacity_pliers1   1.600000000000e+01
    RHS       Steel_capacity2   0.000000000000e+00
    RHS       molding_capacity2   2.100000000000e+01
    RHS       assembly_capacity2   8.000000000000e+00
    RHS       capacity_wrenches2   1.500000000000e+01
    RHS       capacity_pliers2   1.600000000000e+01
    RHS       Steel_capacity3   0.000000000000e+00
    RHS       molding_capacity3   2.100000000000e+01
    RHS       assembly_capacity3   1.000000000000e+01
    RHS       capacity_wrenches3   1.500000000000e+01
    RHS       capacity_pliers3   1.600000000000e+01
BOUNDS
ENDATA
